\Generated using SimplexCpp @ 28-02-2020 18:43:05
\Unbounded problem

Minimize
 obj: -5 x1 -4 x2 
Subject To
 c1: +1 x1 +1 x3 <= 7
 c2: +1 x1 -1 x2 +1 x4 <= 8
Bounds
 x1 >= 0 x2 >= 0 x3 >= 0 x4 >= 0

End